NAME : instances/clustered-mixed-tsp/instance-3.tsp
COMMENT : No Comment
TYPE : TSP
DIMENSION: 46
EDGE_WEIGHT_TYPE : EUC_2D
NODE_COORD_SECTION
1 102 1159 
2 1211 980 
3 514 681 
4 1970 1826 
5 839 1356 
6 955 1298 
7 41 822 
8 971 1185 
9 594 1875 
10 1873 1814 
11 1599 675 
12 689 1581 
13 1608 241 
14 539 1110 
15 1918 1651 
16 838 352 
17 1742 813 
18 208 470 
19 127 1659 
20 1332 1660 
21 1987 1810 
22 793 1633 
23 970 142 
24 1861 1410 
25 1014 1858 
26 1415 988 
27 305 481 
28 356 845 
29 478 1777 
30 586 180 
31 1823 1155 
32 468 431 
33 1953 1341 
34 57 1207 
35 363 1808 
36 1219 1944 
37 324 1511 
38 1205 26 
39 1476 37 
40 1088 333 
41 1581 624 
42 199 112 
43 1961 62 
44 26 1930 
45 1352 1265 
46 1912 459 
EOF
